495
460
419
559
383
488
233
378
476
237
332
521
304
224
473
480
505
162
434
299
590
300
401
158
430
377
242
575
870
276
491
405
380
547
534
493
827
570
430
365
325
157
681
254
328
633
365
408
354
333
336
568
294
182
384
339
341
352
204
610
302
283
340
193
384
428
394
682
330
665
396
640
284
248
433
358
468
538
483
290
409
476
298
407
394
498
327
497
254
578
327
383
323
454
344
438
429
298
493
475
